Set parameter TSPort to value 51199
Set parameter TokenServer to value "open-license1.lanl.gov"
Set parameter TimeLimit to value 8192
Set parameter Threads to value 1
Gurobi Optimizer version 10.0.3 build v10.0.3rc0 (linux64)

CPU model: Intel(R) Xeon(R) CPU E5-2695 v4 @ 2.10GHz, instruction set [SSE2|AVX|AVX2]
Thread count: 36 physical cores, 72 logical processors, using up to 1 threads

Optimize a model with 75432 rows, 30531 columns and 176008 nonzeros
Model fingerprint: 0x238b28f0
Variable types: 0 continuous, 30531 integer (30531 binary)
Coefficient statistics:
  Matrix range     [1e+00, 1e+00]
  Objective range  [2e+00, 3e+01]
  Bounds range     [1e+00, 1e+00]
  RHS range        [1e+00, 1e+00]
Found heuristic solution: objective -21198.00000
Presolve removed 46434 rows and 0 columns
Presolve time: 0.38s
Presolved: 28998 rows, 30531 columns, 79286 nonzeros
Variable types: 0 continuous, 30531 integer (30531 binary)
Found heuristic solution: objective -30156.00000

Root relaxation: objective -4.716600e+04, 15203 iterations, 0.34 seconds (0.17 work units)

    Nodes    |    Current Node    |     Objective Bounds      |     Work
 Expl Unexpl |  Obj  Depth IntInf | Incumbent    BestBd   Gap | It/Node Time

     0     0 -47166.000    0 9241 -30156.000 -47166.000  56.4%     -    1s
H    0     0                    -31442.00000 -47166.000  50.0%     -    1s
     0     0 -44927.000    0 9814 -31442.000 -44927.000  42.9%     -    2s
H    0     0                    -31498.00000 -44927.000  42.6%     -    2s
     0     0 -43731.500    0 10596 -31498.000 -43731.500  38.8%     -    3s
     0     0 -43478.000    0 10679 -31498.000 -43478.000  38.0%     -    3s
     0     0 -43440.000    0 10728 -31498.000 -43440.000  37.9%     -    4s
     0     0 -43436.333    0 10747 -31498.000 -43436.333  37.9%     -    4s
     0     0 -42805.333    0 10988 -31498.000 -42805.333  35.9%     -    5s
     0     0 -42636.667    0 11082 -31498.000 -42636.667  35.4%     -    6s
     0     0 -42620.333    0 11105 -31498.000 -42620.333  35.3%     -    6s
     0     0 -42618.167    0 11120 -31498.000 -42618.167  35.3%     -    7s
     0     0 -41915.600    0 11553 -31498.000 -41915.600  33.1%     -   10s
     0     0 -41661.788    0 11838 -31498.000 -41661.788  32.3%     -   14s
     0     0 -41613.807    0 12030 -31498.000 -41613.807  32.1%     -   17s
     0     0 -41604.925    0 12074 -31498.000 -41604.925  32.1%     -   18s
     0     0 -41603.033    0 12118 -31498.000 -41603.033  32.1%     -   18s
     0     0 -41174.952    0 12205 -31498.000 -41174.952  30.7%     -   43s
     0     0 -41001.882    0 12687 -31498.000 -41001.882  30.2%     -   70s
     0     0 -40954.471    0 12903 -31498.000 -40954.471  30.0%     -   91s
     0     0 -40942.031    0 13069 -31498.000 -40942.031  30.0%     -  107s
     0     0 -40934.595    0 13209 -31498.000 -40934.595  30.0%     -  118s
     0     0 -40933.830    0 13277 -31498.000 -40933.830  30.0%     -  121s
     0     0 -40721.610    0 13204 -31498.000 -40721.610  29.3%     -  189s
     0     0 -40636.041    0 13401 -31498.000 -40636.041  29.0%     -  238s
     0     0 -40610.211    0 13860 -31498.000 -40610.211  28.9%     -  271s
     0     0 -40598.549    0 14008 -31498.000 -40598.549  28.9%     -  298s
     0     0 -40593.711    0 14056 -31498.000 -40593.711  28.9%     -  317s
     0     0 -40433.287    0 14184 -31498.000 -40433.287  28.4%     -  416s
     0     0 -40370.813    0 14367 -31498.000 -40370.813  28.2%     -  498s
     0     0 -40341.690    0 14650 -31498.000 -40341.690  28.1%     -  565s
     0     0 -40332.134    0 14919 -31498.000 -40332.134  28.0%     -  587s
     0     0 -40325.724    0 15050 -31498.000 -40325.724  28.0%     -  605s
     0     0 -40145.286    0 14867 -31498.000 -40145.286  27.5%     -  767s
     0     0 -40081.512    0 15139 -31498.000 -40081.512  27.3%     -  885s
     0     0 -40058.649    0 15413 -31498.000 -40058.649  27.2%     -  964s
     0     0 -40045.369    0 15599 -31498.000 -40045.369  27.1%     - 1033s
     0     0 -40039.812    0 15897 -31498.000 -40039.812  27.1%     - 1058s
     0     0 -39876.728    0 15560 -31498.000 -39876.728  26.6%     - 1263s
     0     0 -39824.761    0 15835 -31498.000 -39824.761  26.4%     - 1405s
     0     0 -39794.563    0 15988 -31498.000 -39794.563  26.3%     - 1526s
     0     0 -39784.320    0 16292 -31498.000 -39784.320  26.3%     - 1568s
     0     0 -39778.979    0 16473 -31498.000 -39778.979  26.3%     - 1598s
     0     0 -39633.370    0 16508 -31498.000 -39633.370  25.8%     - 1843s
     0     0 -39584.831    0 16657 -31498.000 -39584.831  25.7%     - 2011s
     0     0 -39560.769    0 16822 -31498.000 -39560.769  25.6%     - 2144s
     0     0 -39551.755    0 17149 -31498.000 -39551.755  25.6%     - 2191s
     0     0 -39429.177    0 17016 -31498.000 -39429.177  25.2%     - 2469s
     0     0 -39390.674    0 17117 -31498.000 -39390.674  25.1%     - 2649s
     0     0 -39372.317    0 17379 -31498.000 -39372.317  25.0%     - 2789s
     0     0 -39362.212    0 17498 -31498.000 -39362.212  25.0%     - 2896s
     0     0 -39265.172    0 17414 -31498.000 -39265.172  24.7%     - 3163s
     0     0 -39233.205    0 17683 -31498.000 -39233.205  24.6%     - 3362s
     0     0 -39219.053    0 17891 -31498.000 -39219.053  24.5%     - 3447s
     0     0 -39212.496    0 18189 -31498.000 -39212.496  24.5%     - 3503s
     0     0 -39103.927    0 17931 -31498.000 -39103.927  24.1%     - 3842s
     0     0 -39080.028    0 18085 -31498.000 -39080.028  24.1%     - 4042s
     0     0 -39069.944    0 18377 -31498.000 -39069.944  24.0%     - 4129s
     0     0 -38980.410    0 18324 -31498.000 -38980.410  23.8%     - 4444s
     0     0 -38980.410    0 18036 -31498.000 -38980.410  23.8%     - 4448s
H    0     0                    -31648.00000 -38980.410  23.2%     - 4551s
H    0     0                    -31650.00000 -38980.410  23.2%     - 4981s
     0     2 -38980.374    0 17993 -31650.000 -38980.374  23.2%     - 4981s
     1     3 -38972.151    1 18032 -31650.000 -38980.374  23.2%  9951 5004s
     2     4 -38972.083    1 17962 -31650.000 -38972.083  23.1%  6905 5014s
     3     5 -38966.558    2 17935 -31650.000 -38972.027  23.1%  6823 5032s
     4     6 -38966.612    2 17886 -31650.000 -38971.817  23.1%  6188 5042s
     5     7 -38959.658    3 17941 -31650.000 -38971.817  23.1%  5627 5053s
     6     8 -38961.476    3 17932 -31650.000 -38971.817  23.1%  5350 5064s
     7     9 -38953.006    4 17948 -31650.000 -38971.817  23.1%  5163 5075s
     8    10 -38945.312    5 17931 -31650.000 -38971.817  23.1%  5151 5089s
     9    11 -38946.943    5 17892 -31650.000 -38971.817  23.1%  5107 5102s
    10    12 -38940.857    6 17886 -31650.000 -38971.817  23.1%  5170 5117s
    11    13 -38941.822    6 17868 -31650.000 -38971.817  23.1%  5833 5136s
    12    14 -38937.486    7 17859 -31650.000 -38971.817  23.1%  5674 5146s
    13    15 -38938.621    7 17841 -31650.000 -38971.817  23.1%  5546 5157s
    14    16 -38929.907    8 17814 -31650.000 -38971.817  23.1%  5581 5166s
    15    17 -38923.541    9 17840 -31650.000 -38971.817  23.1%  5510 5180s
    16    18 -38924.761    9 17845 -31650.000 -38971.817  23.1%  5786 5195s
    17    19 -38915.600   10 17837 -31650.000 -38971.817  23.1%  5729 5208s
    18    20 -38917.832   10 17825 -31650.000 -38971.817  23.1%  5744 5223s
    19    21 -38909.044   11 17854 -31650.000 -38971.817  23.1%  5720 5238s
    20    22 -38900.480   12 17826 -31650.000 -38971.817  23.1%  5780 5248s
    21    23 -38894.506   13 17773 -31650.000 -38971.817  23.1%  6032 5280s
    22    24 -38889.030   14 17738 -31650.000 -38971.817  23.1%  5996 5292s
    23    25 -38881.252   15 17696 -31650.000 -38971.817  23.1%  5851 5299s
    24    26 -38876.063   16 17790 -31650.000 -38971.817  23.1% 14816 5737s
    25    27 -38878.063   16 17659 -31650.000 -38971.817  23.1% 14581 5760s
    26    28 -38870.345   17 17631 -31650.000 -38971.817  23.1% 14298 5778s
    27    29 -38863.404   18 17625 -31650.000 -38971.817  23.1% 14030 5796s
    28    30 -38865.402   18 17622 -31650.000 -38971.817  23.1% 13790 5815s
    29    31 -38854.222   19 17650 -31650.000 -38971.817  23.1% 13596 5836s
    30    32 -38855.090   19 17623 -31650.000 -38971.817  23.1% 13354 5852s
    31    33 -38846.303   20 17654 -31650.000 -38971.817  23.1% 13060 5863s
    32    34 -38839.156   21 17643 -31650.000 -38971.817  23.1% 12964 5890s
    33    35 -38840.840   21 17642 -31650.000 -38971.817  23.1% 12840 5912s
    34    36 -38836.388   22 17614 -31650.000 -38971.817  23.1% 12582 5922s
    35    37 -38832.893   23 17605 -31650.000 -38971.817  23.1% 12494 5947s
    36    38 -38826.663   24 17546 -31650.000 -38971.817  23.1% 12311 5962s
    37    39 -38821.050   25 17543 -31650.000 -38971.817  23.1% 12076 5970s
    38    40 -38814.870   26 17611 -31650.000 -38971.817  23.1% 22900 6766s
    39    41 -38818.632   26 17531 -31650.000 -38971.817  23.1% 22447 6779s
    40    42 -38810.802   27 17527 -31650.000 -38971.817  23.1% 22005 6791s
    41    43 -38805.663   28 17497 -31650.000 -38971.817  23.1% 21696 6815s
    42    44 -38800.371   29 17437 -31650.000 -38971.817  23.1% 21355 6834s
    43    45 -38793.499   30 17446 -31650.000 -38971.817  23.1% 20934 6842s
    44    46 -38786.033   31 17434 -31650.000 -38971.817  23.1% 20581 6856s
    45    47 -38778.987   32 17426 -31650.000 -38971.817  23.1% 20235 6868s
    46    48 -38782.942   32 17466 -31650.000 -38971.817  23.1% 19903 6881s
    47    49 -38772.225   33 17376 -31650.000 -38971.817  23.1% 19592 6894s
    48    50 -38766.265   34 17349 -31650.000 -38971.817  23.1% 19289 6907s
    49    51 -38759.233   35 17307 -31650.000 -38971.817  23.1% 19001 6919s
    50    52 -38755.269   36 17311 -31650.000 -38971.817  23.1% 18761 6937s
    51    53 -38750.084   37 17275 -31650.000 -38971.817  23.1% 18477 6947s
    52    54 -38744.101   38 17273 -31650.000 -38971.817  23.1% 18185 6955s
    53    55 -38745.642   38 17274 -31650.000 -38971.817  23.1% 17901 6963s
    54    56 -38735.340   39 17268 -31650.000 -38971.817  23.1% 17656 6974s
    55    57 -38729.885   40 17326 -31650.000 -38971.817  23.1% 17430 6987s
    56    58 -38724.621   41 17309 -31650.000 -38971.817  23.1% 17228 7002s
    57    59 -38720.519   42 17324 -31650.000 -38971.817  23.1% 17009 7013s
    58    60 -38713.169   43 17283 -31650.000 -38971.817  23.1% 16757 7019s
    59    61 -38704.227   44 17303 -31650.000 -38971.817  23.1% 16545 7029s
    60    62 -38706.227   44 17306 -31650.000 -38971.817  23.1% 16342 7039s
    61    63 -38698.760   45 17266 -31650.000 -38971.817  23.1% 16153 7051s
    62    64 -38693.580   46 17268 -31650.000 -38971.817  23.1% 15955 7060s
    63    65 -38696.701   46 17252 -31650.000 -38971.817  23.1% 15747 7066s
    64    66 -38685.298   47 17241 -31650.000 -38971.817  23.1% 15601 7081s
    65    67 -38675.705   48 17235 -31650.000 -38971.817  23.1% 15480 7093s
    66    68 -38671.559   49 17265 -31650.000 -38971.817  23.1% 15313 7104s
    67    69 -38665.323   50 17238 -31650.000 -38971.817  23.1% 15133 7112s
    68    70 -38658.834   51 17267 -31650.000 -38971.817  23.1% 14981 7122s
    69    71 -38652.588   52 17231 -31650.000 -38971.817  23.1% 14875 7141s
    70    72 -38654.468   52 17262 -31650.000 -38971.817  23.1% 14732 7152s
    71    73 -38645.119   53 17187 -31650.000 -38971.817  23.1% 14597 7165s
    72    74 -38639.432   54 17153 -31650.000 -38971.817  23.1% 14573 7185s
    73    75 -38631.660   55 17137 -31650.000 -38971.817  23.1% 14506 7209s
    74    76 -38626.790   56 17115 -31650.000 -38971.817  23.1% 14423 7229s
    75    77 -38623.861   57 17109 -31650.000 -38971.817  23.1% 14314 7243s
    76    78 -38616.994   58 17082 -31650.000 -38971.817  23.1% 14193 7256s
    77    79 -38609.376   59 17068 -31650.000 -38971.817  23.1% 14098 7272s
    78    80 -38598.723   60 17098 -31650.000 -38971.817  23.1% 13959 7280s
    80    82 -38593.591   61 17096 -31650.000 -38971.817  23.1% 13692 7295s
    81    83 -38597.438   61 17066 -31650.000 -38971.817  23.1% 13583 7307s
    82    84 -38587.949   62 17071 -31650.000 -38971.817  23.1% 13510 7325s
    83    85 -38587.118   62 17104 -31650.000 -38971.817  23.1% 13438 7337s
    84    86 -38581.827   63 17076 -31650.000 -38971.817  23.1% 13338 7349s
    85    87 -38581.636   63 17057 -31650.000 -38971.817  23.1% 13243 7361s
    86    88 -38575.046   64 17005 -31650.000 -38971.817  23.1% 13143 7372s
    87    89 -38568.074   65 17021 -31650.000 -38971.817  23.1% 13033 7381s
    88    90 -38563.483   66 17009 -31650.000 -38971.817  23.1% 12935 7391s
    89    91 -38557.336   67 16974 -31650.000 -38971.817  23.1% 12809 7395s
    90    92 -38549.164   68 16968 -31650.000 -38971.817  23.1% 12724 7408s
    91    93 -38541.504   69 16934 -31650.000 -38971.817  23.1% 12615 7414s
    92    94 -38537.676   70 16892 -31650.000 -38971.817  23.1% 12533 7426s
    93    95 -38531.299   71 16855 -31650.000 -38971.817  23.1% 12456 7438s
    94    96 -38532.336   71 16866 -31650.000 -38971.817  23.1% 12438 7456s
    95    97 -38528.231   72 16851 -31650.000 -38971.817  23.1% 12403 7476s
    96    98 -38520.725   73 16842 -31650.000 -38971.817  23.1% 12336 7491s
    97    99 -38513.764   74 16793 -31650.000 -38971.817  23.1% 12247 7499s
    98   100 -38514.617   74 16877 -31650.000 -38971.817  23.1% 12176 7511s
    99   101 -38502.609   75 16838 -31650.000 -38971.817  23.1% 12103 7523s
   100   102 -38493.606   76 16823 -31650.000 -38971.817  23.1% 12074 7544s
   101   103 -38486.283   77 16784 -31650.000 -38971.817  23.1% 11999 7555s
   102   104 -38486.913   77 16841 -31650.000 -38971.817  23.1% 11963 7574s
   103   105 -38481.301   78 16777 -31650.000 -38971.817  23.1% 11889 7584s
   104   106 -38480.669   78 16809 -31650.000 -38971.817  23.1% 11834 7626s
   105   107 -38473.507   79 16819 -31650.000 -38971.817  23.1% 11748 7633s
   106   108 -38465.952   80 16839 -31650.000 -38971.817  23.1% 11714 7653s
   107   109 -38467.582   80 16812 -31650.000 -38971.817  23.1% 11659 7667s
   108   110 -38459.285   81 16805 -31650.000 -38971.817  23.1% 11596 7678s
   109   111 -38453.196   82 16747 -31650.000 -38971.817  23.1% 11535 7690s
   110   112 -38444.299   83 16776 -31650.000 -38971.817  23.1% 11462 7699s
   111   113 -38448.299   83 16777 -31650.000 -38971.817  23.1% 11388 7706s
   112   114 -38441.256   84 16805 -31650.000 -38971.817  23.1% 11322 7716s
   113   115 -38439.276   84 16767 -31650.000 -38971.817  23.1% 11249 7723s
   114   116 -38432.267   85 16826 -31650.000 -38971.817  23.1% 11187 7733s
   115   117 -38424.181   86 16817 -31650.000 -38971.817  23.1% 11136 7745s
   116   118 -38425.501   86 16838 -31650.000 -38971.817  23.1% 11063 7751s
   117   119 -38416.433   87 16834 -31650.000 -38971.817  23.1% 11019 7766s
   118   120 -38417.544   87 16795 -31650.000 -38971.817  23.1% 10965 7778s
   119   121 -38407.482   88 16804 -31650.000 -38971.817  23.1% 10916 7790s
   120   122 -38409.834   88 16849 -31650.000 -38971.817  23.1% 10859 7800s
   121   123 -38399.734   89 16751 -31650.000 -38971.817  23.1% 10813 7813s
   122   124 -38394.793   90 16723 -31650.000 -38971.817  23.1% 10747 7819s
   123   125 -38387.614   91 16717 -31650.000 -38971.817  23.1% 10688 7827s
   124   126 -38380.056   92 16698 -31650.000 -38971.817  23.1% 10654 7842s
   125   127 -38381.908   92 16718 -31650.000 -38971.817  23.1% 10610 7854s
   126   128 -38375.403   93 16659 -31650.000 -38971.817  23.1% 10575 7869s
   127   129 -38370.739   94 16653 -31650.000 -38971.817  23.1% 10514 7875s
   128   130 -38366.179   95 16631 -31650.000 -38971.817  23.1% 10462 7884s
   129   131 -38368.519   95 16657 -31650.000 -38971.817  23.1% 10402 7891s
   130   132 -38358.498   96 16643 -31650.000 -38971.817  23.1% 10359 7902s
   131   133 -38353.100   97 16586 -31650.000 -38971.817  23.1% 10317 7913s
   132   134 -38347.992   98 16537 -31650.000 -38971.817  23.1% 10270 7923s
   133   135 -38342.525   99 16549 -31650.000 -38971.817  23.1% 10227 7933s
   134   136 -38337.802  100 16569 -31650.000 -38971.817  23.1% 10176 7941s
   135   137 -38329.810  101 16549 -31650.000 -38971.817  23.1% 10143 7954s
   136   138 -38324.554  102 16542 -31650.000 -38971.817  23.1% 10133 7974s
   137   139 -38317.438  103 16549 -31650.000 -38971.817  23.1% 10094 7986s
   138   140 -38312.124  104 16541 -31650.000 -38971.817  23.1% 10061 7999s
   139   141 -38305.587  105 16583 -31650.000 -38971.817  23.1% 10021 8009s
   140   142 -38300.965  106 16511 -31650.000 -38971.817  23.1%  9967 8015s
   141   143 -38294.097  107 16487 -31650.000 -38971.817  23.1%  9941 8029s
   142   144 -38290.131  108 16454 -31650.000 -38971.817  23.1%  9912 8043s
   143   145 -38285.146  109 16437 -31650.000 -38971.817  23.1%  9861 8049s
   144   146 -38280.818  110 16399 -31650.000 -38971.817  23.1%  9824 8059s
   145   147 -38277.254  111 16396 -31650.000 -38971.817  23.1%  9790 8070s
   146   148 -38270.366  112 16431 -31650.000 -38971.817  23.1%  9754 8081s
   147   149 -38265.055  113 16412 -31650.000 -38971.817  23.1%  9726 8094s
   148   150 -38266.634  113 16423 -31650.000 -38971.817  23.1%  9709 8110s
   149   151 -38261.362  114 16396 -31650.000 -38971.817  23.1%  9660 8115s
   150   152 -38252.370  115 16353 -31650.000 -38971.817  23.1%  9621 8124s
   151   153 -38256.407  115 16378 -31650.000 -38971.817  23.1%  9580 8132s
   152   154 -38247.868  116 16377 -31650.000 -38971.817  23.1%  9545 8142s
   153   155 -38242.397  117 16394 -31650.000 -38971.817  23.1%  9513 8153s
   154   156 -38232.631  118 16376 -31650.000 -38971.817  23.1%  9483 8164s

Cutting planes:
  Gomory: 65
  MIR: 304
  Zero half: 7222
  RLT: 1363
  BQP: 1508

Explored 155 nodes (3458996 simplex iterations) in 8192.01 seconds (12979.41 work units)
Thread count was 1 (of 72 available processors)

Solution count 6: -31650 -31648 -31498 ... -21198

Time limit reached
Best objective -3.165000000000e+04, best bound -3.897000000000e+04, gap 23.1280%

User-callback calls 51222, time in user-callback 0.22 sec

BQP_SOLUTION, 5387, 25144, -9628.000000, 8192.010524, 1, 1, 1, -1, 1, -1, 1, 1, 1, 1, 1, 1, 1, 1, 1, 1, 1, -1, 1, -1, -1, 1, -1, 1, -1, 1, 1, 1, 1, 1, 1, 1, 1, -1, 1, 1, 1, -1, 1, -1, 1, 1, 1, 1, 1, 1, 1, 1, 1, -1, 1, 1, 1, -1, 1, 1, 1, 1, -1, 1, 1, -1, 1, 1, 1, 1, -1, 1, -1, 1, 1, 1, -1, 1, -1, -1, 1, -1, 1, 1, -1, 1, 1, 1, 1, 1, 1, 1, 1, 1, 1, 1, 1, 1, 1, 1, 1, 1, 1, -1, 1, 1, 1, 1, 1, 1, 1, 1, -1, -1, 1, -1, 1, 1, 1, 1, -1, 1, 1, 1, 1, 1, 1, 1, 1, 1, 1, 1, 1, -1, -1, 1, 1, 1, 1, -1, 1, 1, 1, 1, -1, 1, 1, 1, 1, 1, 1, 1, 1, 1, 1, 1, -1, 1, 1, 1, 1, 1, 1, 1, 1, 1, 1, -1, 1, -1, 1, -1, 1, 1, -1, 1, 1, 1, 1, 1, 1, -1, 1, 1, 1, 1, 1, -1, 1, 1, 1, 1, 1, 1, 1, 1, 1, 1, 1, 1, -1, 1, 1, 1, 1, 1, 1, 1, 1, 1, 1, 1, 1, 1, 1, 1, 1, -1, 1, 1, 1, 1, 1, 1, 1, 1, 1, 1, 1, 1, 1, -1, 1, -1, 1, 1, -1, 1, -1, 1, 1, 1, 1, 1, 1, 1, 1, 1, 1, 1, 1, 1, 1, 1, -1, 1, 1, 1, 1, 1, 1, 1, -1, 1, 1, 1, 1, 1, -1, 1, -1, 1, 1, 1, 1, 1, 1, -1, 1, 1, 1, 1, 1, 1, 1, 1, 1, 1, 1, 1, 1, 1, 1, 1, -1, 1, 1, 1, 1, 1, 1, -1, 1, 1, 1, 1, 1, 1, 1, 1, 1, 1, 1, 1, 1, 1, 1, 1, 1, 1, 1, -1, 1, 1, 1, 1, -1, 1, -1, 1, 1, 1, 1, 1, 1, 1, 1, -1, 1, 1, 1, 1, 1, -1, 1, 1, 1, 1, 1, 1, 1, 1, 1, 1, 1, -1, 1, 1, 1, 1, 1, 1, 1, -1, 1, -1, 1, -1, 1, -1, 1, 1, 1, 1, 1, 1, 1, 1, -1, 1, 1, 1, 1, -1, 1, 1, -1, 1, 1, 1, 1, 1, 1, 1, 1, -1, 1, 1, 1, 1, 1, 1, 1, -1, 1, 1, 1, 1, 1, 1, 1, 1, 1, 1, 1, 1, 1, 1, 1, 1, 1, 1, 1, 1, 1, 1, 1, -1, 1, -1, 1, 1, 1, 1, -1, -1, 1, 1, 1, 1, 1, 1, 1, 1, 1, 1, 1, 1, 1, 1, 1, 1, 1, 1, 1, -1, 1, 1, 1, 1, 1, 1, 1, 1, 1, 1, -1, 1, 1, 1, 1, 1, -1, 1, 1, 1, 1, 1, -1, 1, -1, 1, -1, 1, 1, 1, 1, 1, 1, 1, 1, 1, 1, -1, 1, 1, 1, 1, 1, 1, 1, 1, 1, -1, 1, 1, 1, 1, 1, 1, 1, 1, 1, 1, -1, 1, -1, 1, 1, 1, 1, 1, 1, 1, 1, 1, 1, 1, 1, 1, 1, -1, 1, 1, 1, 1, 1, -1, 1, 1, 1, 1, 1, 1, -1, 1, -1, 1, 1, 1, 1, 1, 1, 1, 1, 1, 1, 1, -1, 1, 1, 1, 1, 1, -1, 1, 1, 1, 1, 1, 1, -1, 1, 1, -1, 1, 1, 1, 1, 1, -1, 1, 1, 1, 1, 1, 1, 1, 1, 1, 1, 1, 1, 1, 1, 1, 1, -1, 1, 1, 1, 1, 1, 1, -1, 1, 1, 1, 1, 1, 1, 1, 1, 1, 1, -1, 1, 1, 1, 1, 1, 1, 1, 1, 1, 1, 1, 1, 1, 1, 1, 1, 1, 1, 1, 1, 1, -1, 1, 1, 1, 1, 1, 1, 1, 1, 1, 1, 1, 1, 1, 1, 1, 1, 1, -1, 1, 1, 1, 1, 1, 1, 1, 1, 1, 1, 1, 1, 1, 1, -1, 1, -1, 1, 1, 1, 1, 1, 1, 1, -1, 1, 1, 1, -1, 1, 1, 1, 1, 1, 1, 1, 1, -1, 1, 1, 1, 1, 1, 1, -1, 1, 1, 1, 1, 1, 1, 1, 1, 1, 1, 1, 1, 1, 1, 1, 1, 1, -1, 1, 1, 1, 1, 1, 1, 1, 1, -1, 1, -1, 1, 1, 1, -1, 1, 1, 1, 1, 1, 1, 1, 1, 1, 1, 1, 1, -1, 1, 1, 1, 1, 1, 1, 1, 1, 1, 1, 1, 1, -1, 1, 1, 1, 1, 1, 1, 1, 1, 1, -1, 1, 1, 1, 1, 1, 1, 1, 1, 1, 1, 1, 1, 1, 1, 1, 1, -1, 1, 1, 1, -1, 1, 1, -1, 1, 1, -1, 1, 1, -1, 1, 1, 1, 1, 1, 1, 1, 1, 1, 1, 1, 1, 1, 1, 1, 1, 1, 1, 1, 1, 1, 1, 1, 1, 1, 1, 1, 1, 1, 1, -1, 1, 1, 1, 1, 1, 1, 1, 1, 1, 1, 1, 1, -1, 1, 1, 1, 1, 1, 1, 1, 1, 1, 1, 1, 1, 1, 1, 1, 1, 1, 1, 1, 1, 1, 1, 1, 1, 1, 1, -1, 1, 1, 1, 1, -1, 1, 1, 1, 1, 1, -1, 1, -1, 1, -1, 1, 1, 1, 1, 1, 1, 1, 1, 1, 1, 1, 1, 1, 1, 1, 1, 1, 1, 1, 1, 1, 1, 1, 1, 1, 1, 1, 1, 1, 1, 1, 1, 1, -1, 1, 1, 1, 1, 1, 1, -1, 1, -1, 1, 1, 1, 1, 1, -1, 1, 1, 1, 1, 1, 1, -1, 1, 1, 1, 1, 1, 1, 1, 1, 1, 1, 1, -1, 1, -1, 1, 1, 1, 1, 1, 1, 1, 1, 1, -1, 1, 1, 1, 1, 1, 1, 1, 1, 1, -1, 1, 1, 1, 1, 1, 1, 1, 1, 1, 1, 1, 1, 1, 1, 1, -1, 1, 1, -1, 1, 1, 1, 1, 1, 1, 1, 1, 1, 1, 1, 1, 1, 1, 1, -1, 1, 1, -1, 1, 1, 1, 1, 1, 1, 1, 1, 1, 1, 1, 1, 1, 1, 1, 1, 1, 1, 1, 1, 1, 1, 1, 1, 1, 1, 1, 1, -1, 1, 1, 1, 1, 1, -1, 1, 1, -1, 1, 1, 1, 1, 1, -1, 1, -1, 1, -1, 1, 1, 1, 1, 1, 1, 1, -1, 1, 1, 1, 1, 1, 1, -1, 1, -1, 1, 1, 1, 1, 1, 1, -1, 1, 1, 1, 1, 1, 1, 1, 1, 1, 1, 1, 1, 1, 1, 1, -1, 1, 1, 1, 1, -1, 1, 1, -1, 1, -1, 1, 1, -1, 1, -1, 1, 1, -1, 1, 1, 1, 1, 1, 1, 1, 1, 1, 1, 1, 1, -1, 1, 1, 1, -1, 1, 1, 1, -1, 1, -1, 1, 1, -1, 1, 1, 1, 1, 1, 1, 1, 1, 1, 1, 1, 1, 1, 1, 1, 1, 1, -1, 1, 1, 1, 1, -1, 1, 1, 1, 1, 1, 1, 1, 1, 1, 1, 1, 1, -1, 1, 1, 1, 1, 1, 1, 1, 1, 1, 1, 1, -1, 1, -1, 1, 1, 1, 1, 1, 1, 1, 1, 1, 1, 1, 1, 1, 1, 1, 1, 1, 1, 1, 1, 1, 1, -1, 1, 1, -1, 1, 1, -1, 1, 1, 1, -1, 1, 1, 1, 1, 1, 1, -1, 1, 1, 1, 1, 1, -1, 1, -1, 1, 1, 1, 1, 1, 1, 1, 1, 1, 1, 1, 1, 1, 1, 1, 1, -1, 1, -1, 1, 1, 1, 1, 1, 1, 1, 1, -1, 1, 1, 1, -1, 1, 1, 1, 1, 1, 1, 1, 1, 1, 1, 1, 1, 1, 1, 1, -1, 1, 1, 1, 1, 1, -1, 1, 1, 1, 1, 1, 1, 1, -1, 1, 1, 1, 1, 1, 1, 1, 1, 1, 1, 1, 1, 1, -1, 1, -1, 1, 1, 1, 1, 1, 1, 1, 1, 1, 1, 1, 1, 1, 1, 1, 1, -1, 1, 1, 1, -1, 1, 1, 1, -1, -1, 1, 1, 1, -1, 1, 1, 1, -1, 1, 1, 1, 1, -1, 1, 1, 1, 1, 1, -1, 1, 1, 1, 1, 1, 1, 1, 1, 1, 1, 1, 1, 1, 1, 1, 1, 1, -1, 1, 1, 1, 1, 1, 1, 1, 1, 1, 1, 1, 1, 1, 1, 1, 1, -1, 1, 1, 1, 1, 1, 1, 1, 1, 1, -1, 1, 1, 1, 1, 1, -1, 1, 1, 1, 1, 1, 1, 1, 1, 1, 1, 1, -1, 1, -1, 1, 1, 1, 1, 1, -1, 1, 1, 1, 1, 1, 1, -1, 1, 1, 1, 1, 1, 1, 1, 1, -1, 1, 1, 1, 1, -1, 1, 1, 1, 1, -1, 1, 1, -1, 1, 1, 1, 1, 1, -1, 1, -1, 1, 1, 1, 1, 1, 1, 1, 1, 1, 1, 1, 1, 1, 1, 1, 1, 1, 1, 1, 1, 1, 1, 1, 1, 1, 1, -1, 1, 1, 1, 1, -1, 1, 1, 1, 1, 1, 1, 1, 1, -1, 1, 1, 1, 1, 1, 1, 1, 1, 1, 1, 1, 1, 1, 1, 1, 1, 1, 1, 1, -1, 1, -1, 1, 1, 1, -1, 1, 1, -1, 1, 1, 1, 1, 1, 1, 1, 1, 1, 1, 1, 1, 1, 1, 1, 1, 1, 1, 1, 1, 1, 1, 1, 1, 1, 1, 1, 1, 1, 1, 1, 1, 1, -1, 1, 1, 1, 1, 1, 1, 1, 1, 1, 1, 1, 1, 1, 1, 1, 1, 1, 1, 1, 1, 1, 1, 1, -1, 1, 1, 1, 1, 1, 1, 1, 1, 1, 1, 1, 1, 1, -1, 1, 1, 1, 1, 1, 1, 1, 1, 1, 1, 1, 1, 1, 1, 1, 1, 1, 1, 1, -1, 1, 1, -1, 1, 1, 1, 1, 1, 1, 1, 1, 1, 1, 1, 1, 1, 1, -1, 1, 1, 1, 1, -1, 1, 1, 1, 1, 1, 1, 1, 1, -1, 1, 1, 1, 1, -1, 1, 1, 1, -1, 1, 1, 1, 1, 1, -1, 1, 1, 1, -1, 1, -1, 1, 1, 1, 1, 1, 1, 1, 1, -1, 1, 1, 1, 1, 1, -1, 1, 1, 1, -1, 1, 1, 1, 1, -1, 1, 1, 1, 1, 1, -1, 1, 1, 1, 1, 1, 1, 1, -1, 1, 1, -1, 1, 1, 1, 1, 1, 1, 1, 1, 1, 1, 1, -1, 1, -1, 1, 1, -1, 1, 1, 1, 1, -1, 1, 1, 1, -1, 1, -1, 1, -1, 1, 1, 1, 1, -1, 1, 1, 1, 1, 1, -1, 1, 1, 1, 1, 1, 1, 1, 1, 1, 1, -1, 1, 1, 1, -1, 1, -1, -1, 1, 1, 1, 1, 1, 1, 1, 1, 1, 1, 1, 1, 1, 1, 1, -1, 1, 1, 1, 1, 1, 1, 1, 1, -1, 1, 1, 1, 1, -1, 1, 1, 1, -1, 1, 1, 1, 1, 1, 1, 1, 1, 1, 1, 1, 1, -1, 1, -1, 1, 1, 1, 1, 1, 1, 1, 1, 1, 1, 1, 1, 1, 1, 1, 1, 1, -1, 1, 1, 1, 1, 1, 1, 1, 1, 1, 1, 1, -1, 1, 1, 1, 1, 1, 1, 1, -1, 1, -1, 1, 1, 1, -1, 1, -1, 1, 1, 1, 1, 1, 1, 1, 1, 1, 1, 1, -1, 1, 1, 1, 1, 1, 1, 1, 1, 1, 1, 1, 1, 1, 1, 1, 1, -1, 1, 1, 1, 1, 1, 1, 1, 1, 1, 1, 1, -1, 1, 1, -1, 1, 1, 1, 1, 1, 1, 1, 1, 1, 1, 1, 1, 1, 1, 1, 1, 1, 1, 1, 1, 1, 1, 1, -1, 1, 1, 1, 1, 1, 1, 1, 1, 1, 1, 1, 1, 1, 1, 1, 1, 1, 1, 1, 1, 1, 1, 1, 1, 1, -1, 1, 1, 1, 1, 1, 1, -1, 1, 1, -1, 1, -1, 1, 1, 1, 1, 1, 1, 1, 1, 1, 1, 1, 1, 1, 1, 1, 1, 1, 1, 1, 1, 1, 1, 1, 1, 1, 1, 1, 1, 1, 1, 1, -1, 1, 1, 1, 1, 1, 1, 1, 1, 1, 1, 1, 1, 1, 1, 1, 1, 1, 1, 1, 1, 1, -1, 1, 1, -1, 1, 1, -1, 1, 1, 1, 1, 1, -1, 1, 1, 1, 1, 1, 1, 1, 1, 1, 1, -1, 1, 1, 1, 1, -1, 1, 1, 1, 1, -1, 1, -1, 1, 1, 1, 1, 1, 1, 1, 1, 1, 1, 1, 1, 1, 1, 1, -1, 1, 1, 1, 1, -1, 1, 1, 1, 1, 1, 1, 1, 1, 1, -1, 1, 1, 1, 1, 1, 1, 1, -1, 1, 1, -1, 1, 1, 1, 1, 1, -1, 1, -1, 1, -1, 1, 1, 1, -1, 1, -1, 1, 1, -1, 1, 1, 1, 1, 1, 1, -1, 1, 1, 1, 1, 1, 1, -1, 1, 1, 1, 1, 1, 1, -1, 1, -1, 1, 1, 1, 1, 1, 1, 1, -1, 1, 1, 1, 1, 1, 1, 1, 1, 1, 1, 1, 1, 1, 1, 1, 1, 1, 1, 1, 1, 1, -1, 1, 1, 1, 1, 1, 1, 1, 1, 1, 1, -1, -1, 1, 1, 1, 1, -1, 1, 1, 1, 1, 1, 1, 1, 1, -1, -1, 1, 1, 1, 1, 1, 1, 1, 1, 1, 1, 1, -1, 1, 1, 1, 1, 1, 1, 1, 1, 1, -1, 1, 1, 1, 1, 1, 1, 1, -1, 1, 1, 1, 1, 1, 1, 1, 1, -1, 1, 1, 1, 1, 1, 1, 1, 1, 1, 1, 1, 1, 1, 1, 1, 1, 1, 1, 1, -1, 1, 1, 1, 1, 1, 1, 1, 1, 1, -1, 1, 1, 1, 1, 1, -1, 1, -1, 1, 1, 1, 1, 1, 1, 1, 1, 1, 1, 1, 1, 1, 1, 1, 1, 1, 1, -1, 1, -1, 1, 1, 1, 1, 1, 1, -1, 1, 1, 1, 1, 1, 1, 1, 1, 1, 1, 1, 1, 1, 1, 1, 1, 1, 1, 1, 1, 1, 1, -1, 1, 1, 1, -1, 1, -1, 1, 1, 1, 1, 1, 1, 1, 1, -1, 1, 1, 1, 1, -1, -1, 1, 1, 1, 1, 1, 1, 1, 1, -1, 1, 1, 1, 1, -1, 1, 1, 1, 1, 1, 1, -1, 1, 1, 1, 1, 1, 1, 1, -1, -1, -1, 1, 1, 1, 1, 1, 1, 1, 1, 1, 1, 1, 1, 1, 1, 1, -1, 1, -1, 1, 1, 1, -1, 1, 1, -1, 1, 1, 1, 1, 1, 1, 1, 1, 1, 1, 1, 1, 1, -1, 1, 1, 1, -1, 1, 1, 1, 1, 1, 1, -1, 1, 1, 1, 1, 1, 1, -1, 1, 1, 1, 1, 1, 1, 1, -1, -1, 1, 1, 1, -1, 1, 1, 1, 1, 1, 1, -1, 1, 1, 1, 1, 1, 1, 1, -1, 1, 1, -1, 1, 1, 1, 1, 1, 1, 1, -1, 1, 1, 1, 1, 1, 1, 1, 1, 1, 1, 1, -1, 1, 1, 1, 1, 1, 1, 1, 1, -1, 1, 1, -1, 1, 1, 1, 1, 1, 1, 1, 1, 1, 1, 1, 1, 1, -1, 1, 1, 1, 1, -1, 1, 1, 1, 1, 1, -1, 1, -1, 1, 1, 1, -1, 1, 1, -1, 1, 1, 1, 1, 1, 1, 1, 1, 1, 1, 1, 1, 1, 1, -1, 1, 1, 1, 1, 1, 1, 1, 1, 1, -1, 1, -1, 1, 1, 1, 1, 1, 1, 1, 1, -1, 1, 1, -1, 1, 1, 1, -1, 1, 1, 1, 1, 1, 1, 1, 1, 1, 1, 1, 1, -1, 1, -1, 1, 1, 1, 1, 1, 1, 1, 1, 1, 1, -1, 1, 1, 1, -1, 1, 1, 1, 1, 1, 1, -1, 1, 1, 1, 1, 1, 1, -1, 1, 1, 1, 1, 1, 1, 1, 1, 1, -1, 1, 1, 1, 1, 1, 1, 1, 1, 1, 1, 1, 1, 1, 1, 1, 1, 1, 1, 1, -1, 1, -1, 1, -1, 1, 1, 1, 1, 1, 1, 1, -1, 1, 1, 1, -1, 1, -1, 1, -1, 1, 1, 1, -1, 1, -1, 1, 1, 1, -1, -1, -1, -1, -1, -1, -1, -1, 1, -1, -1, -1, -1, -1, -1, -1, -1, 1, -1, -1, 1, 1, -1, -1, -1, -1, 1, -1, 1, -1, -1, -1, -1, -1, -1, -1, -1, -1, 1, -1, -1, -1, -1, -1, -1, -1, -1, -1, -1, -1, -1, -1, -1, -1, -1, -1, -1, -1, 1, -1, -1, -1, -1, -1, -1, -1, -1, -1, -1, -1, -1, -1, -1, -1, -1, -1, -1, -1, -1, -1, 1, -1, -1, -1, -1, -1, -1, -1, -1, -1, -1, -1, -1, -1, -1, -1, -1, -1, -1, -1, -1, -1, -1, -1, -1, -1, -1, -1, -1, -1, -1, -1, -1, -1, -1, 1, -1, -1, -1, -1, -1, -1, -1, -1, -1, -1, -1, 1, -1, -1, -1, -1, -1, -1, -1, -1, -1, -1, -1, -1, -1, -1, -1, -1, -1, -1, -1, -1, -1, -1, -1, -1, -1, -1, -1, -1, -1, -1, -1, -1, -1, -1, -1, 1, -1, -1, -1, -1, -1, -1, -1, -1, -1, -1, 1, -1, -1, -1, -1, -1, -1, -1, -1, -1, -1, -1, -1, -1, -1, -1, -1, -1, 1, -1, -1, -1, -1, -1, -1, -1, -1, -1, -1, -1, -1, -1, -1, -1, -1, 1, 1, -1, -1, -1, -1, -1, -1, 1, -1, -1, -1, -1, 1, -1, -1, -1, -1, -1, -1, -1, -1, -1, -1, -1, -1, -1, -1, 1, -1, -1, -1, -1, -1, -1, -1, -1, -1, -1, -1, -1, -1, -1, -1, -1, -1, -1, -1, -1, -1, -1, -1, -1, -1, -1, -1, -1, -1, -1, -1, -1, -1, -1, -1, -1, -1, -1, -1, -1, -1, -1, -1, -1, -1, 1, -1, -1, -1, 1, -1, -1, -1, -1, -1, -1, -1, -1, -1, -1, 1, -1, -1, 1, -1, -1, -1, -1, -1, -1, -1, -1, -1, -1, -1, -1, -1, -1, 1, -1, -1, -1, -1, -1, -1, -1, -1, -1, -1, -1, -1, 1, -1, -1, -1, -1, -1, -1, -1, -1, -1, -1, -1, -1, -1, -1, -1, -1, -1, -1, -1, -1, -1, -1, -1, -1, -1, -1, -1, -1, -1, -1, -1, -1, 1, -1, -1, -1, 1, -1, -1, -1, -1, -1, 1, -1, -1, -1, -1, -1, -1, -1, -1, -1, -1, -1, -1, -1, -1, -1, -1, -1, 1, -1, 1, -1, -1, -1, 1, -1, -1, -1, -1, -1, 1, -1, -1, -1, -1, -1, -1, -1, -1, -1, -1, -1, -1, -1, -1, -1, -1, -1, -1, -1, -1, -1, -1, -1, -1, -1, -1, -1, -1, -1, -1, -1, -1, -1, -1, -1, -1, -1, -1, 1, -1, 1, -1, -1, -1, -1, -1, -1, -1, -1, -1, -1, 1, -1, -1, -1, -1, -1, -1, -1, -1, -1, -1, -1, -1, -1, -1, -1, -1, 1, -1, -1, -1, -1, 1, -1, -1, -1, -1, -1, -1, -1, -1, -1, -1, -1, -1, -1, -1, -1, -1, -1, -1, 1, -1, -1, -1, -1, 1, -1, -1, -1, -1, -1, 1, -1, -1, -1, -1, -1, -1, -1, 1, -1, -1, -1, -1, -1, -1, -1, -1, -1, 1, -1, -1, -1, -1, -1, -1, -1, -1, -1, -1, -1, -1, -1, -1, -1, -1, -1, -1, -1, -1, -1, -1, -1, -1, -1, -1, 1, -1, -1, -1, -1, -1, -1, -1, -1, -1, -1, -1, -1, -1, -1, -1, -1, -1, -1, -1, -1, -1, -1, -1, -1, -1, -1, -1, -1, -1, -1, -1, -1, -1, -1, -1, -1, -1, -1, -1, -1, -1, -1, 1, -1, -1, -1, -1, 1, -1, -1, -1, -1, -1, -1, -1, -1, -1, -1, 1, -1, -1, -1, 1, -1, -1, -1, -1, -1, -1, -1, -1, -1, -1, -1, -1, -1, -1, -1, -1, -1, -1, -1, -1, -1, -1, -1, -1, -1, -1, 1, -1, -1, -1, -1, -1, -1, -1, -1, -1, -1, -1, -1, -1, -1, -1, -1, -1, -1, -1, -1, 1, -1, -1, -1, -1, -1, -1, -1, -1, -1, -1, -1, -1, -1, -1, 1, -1, -1, -1, -1, -1, -1, -1, -1, -1, -1, -1, -1, -1, -1, -1, -1, -1, 1, -1, -1, 1, -1, -1, -1, -1, -1, -1, -1, -1, -1, -1, -1, -1, -1, -1, -1, -1, -1, -1, -1, -1, -1, -1, -1, -1, -1, -1, -1, -1, -1, -1, -1, 1, -1, -1, -1, -1, -1, -1, -1, -1, -1, -1, -1, -1, -1, -1, -1, -1, -1, -1, -1, -1, -1, -1, -1, -1, -1, -1, -1, -1, -1, 1, -1, -1, -1, -1, -1, -1, -1, -1, -1, -1, -1, -1, -1, -1, -1, -1, -1, -1, -1, -1, -1, -1, -1, -1, -1, -1, -1, -1, -1, -1, -1, -1, -1, -1, -1, 1, -1, -1, -1, -1, -1, -1, -1, -1, -1, -1, -1, -1, -1, -1, -1, -1, -1, -1, -1, -1, -1, -1, -1, -1, -1, -1, -1, -1, 1, -1, -1, -1, -1, -1, -1, -1, -1, -1, 1, 1, -1, -1, -1, -1, -1, -1, -1, -1, -1, -1, -1, -1, -1, -1, -1, -1, -1, -1, -1, 1, -1, -1, -1, -1, -1, -1, -1, -1, -1, 1, -1, -1, -1, -1, -1, -1, -1, 1, -1, -1, -1, -1, -1, -1, -1, -1, -1, -1, -1, -1, -1, 1, -1, -1, -1, -1, -1, -1, -1, -1, -1, -1, -1, -1, -1, -1, -1, -1, -1, -1, -1, -1, -1, 1, -1, -1, -1, -1, -1, -1, -1, -1, -1, -1, -1, -1, -1, -1, -1, 1, -1, -1, -1, -1, -1, -1, -1, -1, -1, -1, -1, -1, -1, -1, -1, -1, -1, -1, -1, -1, -1, 1, -1, -1, -1, -1, -1, -1, -1, -1, -1, -1, -1, -1, -1, -1, -1, -1, -1, -1, -1, -1, -1, -1, -1, -1, -1, -1, -1, 1, -1, -1, -1, -1, -1, -1, -1, -1, -1, -1, -1, -1, -1, -1, -1, -1, -1, -1, -1, 1, -1, -1, 1, -1, -1, -1, -1, -1, -1, -1, -1, -1, -1, -1, -1, -1, -1, -1, -1, -1, -1, -1, -1, -1, -1, -1, -1, -1, -1, -1, -1, -1, -1, -1, -1, -1, -1, -1, -1, -1, -1, -1, -1, -1, -1, -1, -1, -1, -1, -1, -1, -1, -1, -1, -1, -1, -1, -1, -1, -1, -1, -1, -1, -1, 1, -1, 1, -1, -1, -1, -1, -1, -1, -1, -1, -1, -1, -1, -1, -1, -1, -1, -1, -1, -1, -1, -1, -1, -1, -1, -1, -1, -1, -1, -1, -1, -1, -1, -1, -1, -1, -1, -1, -1, -1, -1, -1, 1, -1, -1, -1, 1, -1, -1, -1, -1, -1, -1, -1, -1, -1, -1, -1, -1, -1, -1, -1, -1, -1, -1, -1, 1, -1, -1, -1, -1, 1, -1, -1, -1, -1, -1, -1, -1, 1, -1, -1, 1, -1, -1, -1, 1, -1, -1, -1, -1, -1, -1, -1, -1, 1, -1, -1, -1, -1, -1, -1, -1, -1, -1, -1, -1, -1, -1, 1, -1, -1, -1, -1, -1, -1, -1, -1, -1, -1, -1, -1, -1, -1, -1, 1, -1, -1, -1, -1, -1, -1, -1, -1, -1, -1, -1, -1, -1, 1, -1, -1, -1, -1, -1, -1, -1, -1, -1, -1, -1, -1, -1, -1, -1, 1, -1, -1, -1, -1, -1, -1, -1, -1, -1, -1, -1, 1, -1, -1, -1, -1, -1, -1, -1, -1, -1, -1, -1, -1, -1, -1, -1, -1, -1, -1, -1, -1, -1, -1, -1, -1, -1, -1, -1, -1, -1, -1, -1, -1, -1, -1, -1, -1, 1, -1, -1, -1, -1, -1, -1, 1, -1, -1, -1, -1, -1, -1, -1, -1, -1, -1, -1, -1, -1, -1, -1, -1, -1, -1, -1, -1, -1, -1, -1, -1, -1, -1, -1, -1, -1, -1, -1, -1, -1, -1, -1, -1, -1, -1, -1, -1, -1, -1, -1, -1, -1, -1, -1, -1, -1, -1, -1, 1, -1, -1, -1, -1, -1, -1, -1, -1, -1, -1, -1, -1, -1, -1, -1, -1, -1, -1, -1, -1, -1, -1, -1, -1, -1, -1, 1, -1, -1, -1, -1, -1, -1, -1, -1, -1, -1, -1, -1, 1, -1, -1, -1, -1, 1, -1, -1, -1, -1, -1, -1, -1, -1, -1, -1, -1, 1, -1, -1, -1, 1, -1, -1, -1, -1, -1, -1, 1, -1, -1, -1, -1, -1, -1, 1, -1, -1, -1, -1, -1, -1, -1, -1, -1, -1, -1, -1, -1, -1, -1, -1, -1, -1, -1, 1, -1, -1, -1, -1, -1, -1, -1, -1, -1, -1, -1, -1, -1, -1, -1, -1, -1, -1, -1, -1, -1, -1, -1, -1, -1, -1, -1, -1, -1, -1, -1, -1, -1, -1, -1, -1, -1, -1, -1, -1, -1, -1, -1, -1, -1, -1, -1, -1, -1, -1, -1, -1, -1, -1, -1, -1, -1, -1, 1, -1, -1, -1, -1, -1, 1, -1, -1, -1, -1, -1, -1, -1, -1, -1, -1, -1, -1, -1, -1, -1, -1, -1, -1, -1, 1, -1, -1, -1, -1, -1, -1, -1, -1, -1, 1, -1, -1, -1, -1, -1, -1, 1, -1, -1, -1, -1, -1, -1, -1, -1, -1, -1, -1, 1, -1, -1, 1, -1, -1, -1, -1, -1, -1, -1, -1, -1, -1, -1, -1, -1, -1, -1, -1, -1, -1, -1, -1, -1, -1, -1, -1, -1, -1, -1, -1, -1, -1, -1, -1, -1, -1, -1, -1, -1, -1, -1, -1, -1, 1, -1, -1, -1, -1, -1, -1, -1, -1, -1, -1, -1, -1, -1, -1, -1, -1, -1, -1, -1, -1, -1, -1, -1, -1, -1, -1, -1, -1, -1, -1, -1, -1, -1, -1, -1, -1, -1, -1, -1, -1, -1, -1, -1, -1, -1, -1, -1, 1, -1, -1, -1, -1, -1, -1, -1, -1, -1, -1, -1, -1, -1, -1, -1, -1, -1, -1, -1, -1, -1, -1, -1, -1, -1, -1, -1, -1, -1, -1, -1, -1, -1, -1, -1, -1, -1, -1, -1, -1, -1, -1, -1, -1, -1, -1, -1, -1, -1, -1, -1, -1, -1, -1, 1, -1, -1, -1, -1, -1, -1, -1, -1, 1, -1, -1, -1, -1, -1, -1, -1, -1, -1, -1, -1, -1, -1, -1, -1, -1, -1, 1, -1, -1, -1, -1, -1, -1, -1, -1, -1, -1, 1, -1, -1, -1, -1, -1, -1, -1, -1, -1, -1, -1, -1, -1, -1, -1, -1, -1, -1, -1, 1, -1, -1, -1, -1, -1, -1, -1, -1, -1, 1, -1, -1, -1, -1, -1, -1, -1, -1, -1, -1, 1, -1, -1, -1, -1, -1, -1, -1, -1, -1, -1, -1, -1, -1, -1, -1, -1, 1, -1, -1, -1, 1, -1, -1, -1, -1, -1, -1, -1, -1, -1, -1, -1, -1, -1, -1, 1, -1, -1, 1, -1, -1, -1, -1, -1, -1, -1, -1, -1, -1, -1, -1, -1, -1, -1, -1, -1, -1, -1, 1, -1, -1, -1, -1, -1, -1, -1, -1, -1, -1, -1, -1, -1, -1, 1, -1, -1, -1, -1, -1, -1, -1, 1, -1, -1, -1, -1, -1, -1, -1, -1, -1, -1, -1, -1, -1, -1, -1, -1, -1, -1, -1, -1, -1, -1, -1, -1, -1, -1, -1, -1, -1, -1, -1, -1, -1, -1, -1, -1, 1, 1, -1, 1, -1, -1, -1, -1, -1, -1, -1, -1, -1, -1, -1, -1, 1, -1, -1, -1, -1, -1, -1, -1, -1, -1, -1, -1, -1, -1, -1, -1, -1, -1, -1, -1, -1, -1, -1, -1, -1, -1, -1, -1, -1, -1, -1, -1, -1, -1, -1, -1, -1, -1, -1, -1, -1, -1, -1, -1, -1, -1, -1, -1, -1, -1, -1, -1, -1, -1, -1, -1, -1, -1, -1, -1, -1, -1, -1, -1, -1, -1, -1, -1, -1, -1, -1, 1, -1, -1, -1, -1, -1, -1, -1, -1, -1, -1, -1, -1, -1, 1, -1, -1, 1, -1, -1, -1, -1, -1, -1, -1, -1, -1, -1, -1, -1, -1, -1, -1, -1, -1, -1, -1, -1, -1, -1, -1, -1, -1, -1, 1, -1, -1, -1, -1, -1, -1, -1, -1, -1, -1, -1, -1, -1, -1, -1, -1, -1, -1, -1, -1, -1, -1, 1, -1, -1, -1, -1, -1, -1, -1, -1, -1, -1, -1, -1, -1, -1, -1, -1, -1, -1, -1, -1, -1, -1, -1, -1, -1, -1, -1, -1, -1, -1, -1, -1, -1, -1, -1, -1, -1, -1, -1, -1, -1, -1, -1, -1, -1, -1, -1, -1, -1, -1, -1, -1, -1, -1, -1, -1, -1, -1, -1, -1, -1, -1, -1, -1, -1, -1, -1, -1, -1, -1, -1, -1, -1, -1, -1, -1, -1, -1, -1, -1, -1, -1, -1, -1, -1, -1, -1, -1, -1, -1, -1, -1, -1, -1, -1, -1, -1, -1, -1, -1, -1, -1, -1, -1, -1, -1, -1, -1, -1, 1, -1, -1, -1, -1, -1, -1, -1, -1, -1, -1, -1, -1, -1, -1, -1, -1, -1, -1, -1, -1, -1, -1, -1, -1, -1, -1, -1, -1, -1, -1, -1, -1, -1, -1, -1, -1, -1, -1, 1, -1, -1, -1, -1, -1, -1, -1, -1, -1, -1, -1, -1, -1, 1, -1, -1, -1, -1, -1, -1, -1, -1, -1, -1, -1, -1, -1, -1, -1, -1, -1, -1, -1, -1, -1, -1, -1, -1, -1, -1, -1, -1, -1, -1, -1, -1, -1, -1, -1, -1, -1, -1, -1, -1, -1, -1, -1, -1, -1, -1, -1, -1, -1, -1, -1, -1, -1, -1, -1, -1, -1, -1, -1, -1, -1, -1, -1, -1, -1, -1, -1, -1, -1, -1, -1, -1, -1, -1, -1, -1, -1, -1, -1, -1, -1, -1, -1, 1, -1, -1, -1, -1, -1, -1, -1, -1, -1, -1, -1, -1, -1, -1, -1, -1, -1, -1, -1, -1, -1, -1, -1, -1, -1, -1, -1, -1, -1, -1, -1, -1, -1, -1, -1, -1, -1, -1, -1, -1, -1, -1, -1, -1, -1, -1, -1, -1, -1, -1, -1, -1, -1, -1, -1, -1, -1, -1, -1, -1, -1, -1, -1, -1, -1, 1, -1, -1, -1, -1, -1, -1, -1, -1, -1, -1, 1, -1, -1, -1, -1, -1, -1, -1, -1, -1, -1, -1, -1, -1, -1, -1, -1, -1, -1, -1, -1, -1, -1, -1, -1, -1, -1, -1, -1, -1, -1, -1, 1, -1, 1, -1, -1, -1, -1, -1, -1, -1, -1, -1, -1, -1, -1, -1, -1, -1, -1, -1, -1, -1, -1, -1, -1, -1, -1, -1, -1, -1, -1, -1, -1, -1, -1, -1, -1, -1, -1, -1, -1, -1, -1, -1, -1, -1, -1, -1, -1, -1, -1, -1, -1, -1, -1, -1, -1, -1, 1, -1, -1, -1, -1, -1, -1, -1, -1, -1, -1, -1, -1, -1, -1, -1, -1, -1, -1, -1, -1, -1, -1, -1, -1, -1, -1, -1, -1, -1, -1, -1, -1, -1, -1, -1, -1, -1, -1, -1, 1, -1, -1, -1, -1, -1, -1, -1, -1, -1, -1, -1, -1, -1, -1, -1, -1, -1, -1, -1, -1, -1, -1, -1, -1, -1, -1, -1, -1, -1, -1, -1, -1, -1, -1, -1, -1, -1, -1, -1, -1, -1, -1, -1, -1, -1, -1, -1, -1, -1, -1, -1, -1, -1, -1, -1, -1, -1, -1, -1, -1, -1, -1, -1, -1, -1, -1, -1, -1, -1, -1, -1, -1, -1, -1, -1, -1, -1, -1, -1, 1, -1, -1, -1, -1, -1, -1, -1, -1, -1, -1, -1, -1, -1, -1, -1, -1, -1, -1, -1, -1, -1, -1, -1, -1, -1, -1, -1, -1, -1, -1, -1, -1, -1, -1, -1, -1, -1, -1, 1, -1, -1, -1, -1, -1, 1, -1, 1, -1, -1, -1, -1, -1, -1, -1, -1, -1, -1, -1, -1, -1, -1, -1, -1, -1, -1, -1, -1, -1, 1, -1, -1, -1, -1, -1, -1, -1, -1, -1, -1, -1, -1, -1, -1, -1, -1, 1, -1, -1, -1, -1, -1, -1, -1, -1, -1, 1, -1, 1, -1, -1, -1, -1, -1, 1, -1, 1, -1, -1, 1, -1, -1, -1, 1, -1, -1, -1, 1, -1, 1, 1, -1
BQP_DATA, 5387, 25144, -9628.000000, -16948.000000, -31650.000000, -38970.000000, 8192.010524, 7591, 155
